(set-info :Origin "This instance was generated by: BanditFuzz-- an RL fuzzer for SMT solvers" )
(set-info :Author "Joe Scott, Fed Mora, Vijay Ganesh" )
(set-info :Contact "Joe Scott, joseph.scott@uwaterloo.ca")
(set-logic QF_BV)
(declare-const bool_0 Bool)
(declare-const bool_1 Bool)
(declare-const bool_2 Bool)
(declare-const bool_3 Bool)
(declare-const bool_4 Bool)
(declare-const bv_0 (_ BitVec 32))
(declare-const bv_1 (_ BitVec 32))
(declare-const bv_2 (_ BitVec 32))
(declare-const bv_3 (_ BitVec 32))
(declare-const bv_4 (_ BitVec 32))
(assert (bvsle (bvxnor (bvadd bv_1 bv_4) (bvmul #x23637b0f  bv_2)) (bvsub (bvmul #x9965bae9  #x17478e03 ) (bvashr bv_0 #x9c227b20 ))))
(assert (and (not (=> bool_0 false)) (bvuge (bvnand #x1d45b068  bv_2) (bvashr bv_2 bv_3))))
(assert (bvsgt (bvadd (bvand bv_1 bv_4) (bvsrem bv_2 #x9f7a2d93 )) (bvsmod (bvurem #x28d241e2  bv_2) (bvnand #x9582faf7  bv_4))))
(assert (bvsgt (bvashr (bvurem #x28cb80e3  #x258cbc35 ) (bvurem bv_3 #xf74e0983 )) (bvadd (bvxor bv_3 bv_4) (bvshl #x504e096d  bv_0))))
(assert (bvslt (bvsrem (bvsdiv #x5ff4c1d1  bv_3) (bvlshr bv_2 #x7645a5f8 )) (bvor (bvsmod bv_4 #xb9c6b758 ) (bvsrem #xea1f471c  #xe1b47433 ))))
(check-sat)
(exit)
